#pLT is two-dimensional [i,r]=[component, individual]
#[i,*] means all data in row i.

param pLT := 
[1,*]
1  0    2  1    3  1    4  1    5  1    6  1    7  1    8  1    9  1    10 1    
11 1    12 1    

[2,*]
1  1    2  1    3  1    4  1    5  1    6  1    7  1    8  2    9  1    10 1    
11 1    12 1    

[3,*]
1  1    2  3    3  1    4  1    5  1    6  1    7  1    8  1    9  1    10 1    
11 1    12 1    

[4,*]
1  1    2  1    3  1    4  1    5  1    6  1    7  1    8  1    9  4    10 1    
11 1    12 1    
;